============================[ Problem Statistics ]=============================|                                                                             ||  Number of variables:          4242                                         ||  Number of clauses:            9814                                         ||  Parse time:                   0.21 s                                       ||                                                                             |============================[ Search Statistics ]==============================| Conflicts |          ORIGINAL         |          LEARNT          | Progress ||           |    Vars  Clauses Literals |    Limit  Clauses Lit/Cl |          |===============================================================================|       100 |    1591     6019   323630 |     2206      100     53 | 62.501 % |===============================================================================restarts              : 2conflicts             : 127            (351 /sec)decisions             : 298            (0.00 % random) (823 /sec)propagations          : 9908           (27370 /sec)conflict literals     : 7662           (95.62 % deleted)CPU time              : 0.362 sSATISFIABLE